29540
0 0 1 1 1 1 1 1 0 1 1 0 1 1 1 0 1 1 1 1 1 1 0 1 1 1 1 1 1 0 
18 19 21 27 2 12 21 27 18 28 4 28 13 13 28 18 3 20 27 27 18 16 5 24 10 18 27 19 4 2 19 19 4 16 27 6 20 9 24 16 18 9 6 4 20 19 13 21 19 14 24 16 2 16 20 6 25 9 18 25 4 2 7 20 13 25 5 14 28 25 18 12 19 9 23 23 20 23 20 16 10 17 9 25 4 13 6 5 27 7 28 6 25 25 2 3 28 6 17 28 28 21 25 18 4 24 4 24 27 3 19 4 27 12 12 20 28 7 17 20 26 25 17 19 26 16 2 12 26 17 28 24 25 20 23 9 3 3 28 10 12 18 12 25 25 5 24 21 27 25 24 17 23 17 20 28 2 16 3 13 13 27 10 24 5 27 5 4 3 21 5 20 19 14 26 2 24 10 4 10 5 21 2 19 12 9 28 23 17 21 2 21 6 4 7 12 7 21 10 19 